benchmarks_vrp/CMT5/no_cluster/CMT5_1.vrp
NAME: CMT5_1
TYPE: CVRP
COMMENT: 1291.29 - Cluster Nr.1
DIMENSION: 12
CAPACITY: 200
EDGE_WEIGHT_TYPE: EUC_2D
NODE_COORD_TYPE: TWOD_COORDS
NODE_COORD_SECTION: 
3 5 30
7 5 25
2 11 28
4 20 26
12 11 31
5 18 24
9 15 30
10 16 22
1 20 26
8 12 24
6 4 18
11 35 35
DEPOT_SECTION: 
11
-1
DEMAND_SECTION: 
3 2
9 26
12 7
7 23
6 35
11 0
5 22
1 9
8 13
4 9
10 41
2 6
EOF
