benchmarks_vrp/CMT5/no_cluster/CMT5_1.tour
NAME: CMT5_1 solution
TYPE: TOUR
TOUR_SECTION:
11 1 4 5 10 8 6 7 3 2 12 9 -1
-1
EOF